benchmarks_CP/INST_36x36/35/inst36x36_35_52.dzn
S=6;
start=[|
35,	-1,	24,	-1,	-1,	1,	-1,	-1,	-1,	-1,	-1,	-1,	-1,	-1,	28,	-1,	-1,	-1,	8,	16,	-1,	27,	-1,	-1,	34,	-1,	-1,	-1,	33,	-1,	15,	-1,	-1,	36,	-1,	-1|
-1,	27,	-1,	-1,	-1,	-1,	22,	-1,	-1,	-1,	2,	32,	21,	19,	-1,	-1,	34,	-1,	11,	1,	10,	-1,	-1,	-1,	18,	-1,	6,	-1,	15,	-1,	-1,	35,	-1,	17,	20,	-1|
-1,	-1,	6,	31,	-1,	-1,	-1,	33,	-1,	35,	-1,	-1,	-1,	-1,	29,	-1,	-1,	-1,	34,	5,	32,	-1,	-1,	-1,	-1,	-1,	-1,	-1,	-1,	13,	-1,	-1,	-1,	-1,	22,	2|
-1,	-1,	-1,	-1,	-1,	-1,	-1,	-1,	1,	-1,	-1,	17,	11,	-1,	32,	25,	8,	-1,	-1,	-1,	-1,	-1,	3,	22,	24,	4,	-1,	10,	-1,	-1,	-1,	-1,	-1,	-1,	19,	-1|
-1,	-1,	-1,	-1,	5,	-1,	-1,	34,	-1,	13,	25,	-1,	-1,	10,	-1,	-1,	-1,	-1,	23,	-1,	-1,	-1,	2,	-1,	-1,	-1,	-1,	-1,	-1,	-1,	-1,	27,	-1,	29,	-1,	3|
13,	-1,	25,	2,	-1,	15,	-1,	-1,	-1,	-1,	5,	-1,	33,	14,	9,	31,	-1,	-1,	-1,	-1,	-1,	-1,	-1,	-1,	-1,	-1,	8,	16,	-1,	-1,	-1,	-1,	-1,	-1,	11,	-1|
-1,	-1,	-1,	3,	-1,	9,	29,	10,	-1,	-1,	35,	-1,	-1,	-1,	-1,	-1,	-1,	-1,	-1,	-1,	-1,	-1,	-1,	13,	20,	-1,	12,	-1,	14,	22,	18,	-1,	-1,	23,	-1,	28|
29,	21,	-1,	-1,	-1,	-1,	-1,	22,	-1,	17,	-1,	7,	16,	3,	-1,	-1,	-1,	-1,	-1,	-1,	5,	9,	-1,	-1,	31,	25,	11,	-1,	8,	28,	-1,	-1,	-1,	-1,	13,	-1|
24,	-1,	19,	-1,	-1,	-1,	-1,	-1,	-1,	-1,	-1,	-1,	20,	-1,	-1,	-1,	-1,	10,	-1,	-1,	-1,	23,	25,	-1,	13,	-1,	-1,	-1,	-1,	-1,	22,	-1,	-1,	-1,	-1,	11|
-1,	35,	-1,	16,	32,	-1,	-1,	-1,	-1,	-1,	-1,	34,	25,	33,	13,	11,	-1,	31,	-1,	8,	12,	-1,	-1,	28,	23,	-1,	10,	-1,	-1,	36,	-1,	-1,	-1,	-1,	29,	-1|
-1,	-1,	28,	-1,	-1,	-1,	-1,	-1,	-1,	-1,	33,	-1,	17,	-1,	19,	1,	23,	35,	-1,	-1,	-1,	7,	-1,	31,	-1,	-1,	-1,	-1,	26,	34,	-1,	16,	-1,	-1,	9,	36|
-1,	-1,	22,	-1,	-1,	-1,	-1,	-1,	11,	28,	24,	-1,	34,	-1,	-1,	-1,	5,	-1,	-1,	-1,	-1,	-1,	-1,	35,	30,	16,	2,	-1,	-1,	-1,	-1,	-1,	-1,	-1,	-1,	-1|
-1,	-1,	12,	18,	-1,	-1,	-1,	-1,	-1,	-1,	-1,	-1,	5,	25,	-1,	33,	-1,	14,	-1,	7,	31,	-1,	-1,	-1,	-1,	6,	28,	9,	-1,	24,	-1,	-1,	36,	11,	-1,	30|
-1,	5,	-1,	-1,	-1,	6,	12,	-1,	36,	11,	16,	18,	8,	15,	10,	-1,	-1,	19,	-1,	-1,	-1,	34,	-1,	-1,	-1,	21,	-1,	-1,	3,	-1,	25,	24,	-1,	20,	26,	9|
-1,	-1,	-1,	-1,	-1,	-1,	5,	-1,	-1,	2,	23,	-1,	1,	6,	-1,	-1,	-1,	-1,	25,	-1,	28,	-1,	19,	9,	-1,	35,	-1,	-1,	34,	-1,	-1,	31,	-1,	-1,	17,	-1|
-1,	20,	-1,	-1,	-1,	19,	-1,	-1,	-1,	-1,	28,	-1,	12,	-1,	-1,	-1,	-1,	13,	-1,	-1,	8,	-1,	10,	-1,	15,	-1,	-1,	-1,	-1,	-1,	32,	29,	-1,	-1,	-1,	-1|
-1,	32,	-1,	-1,	26,	13,	-1,	20,	-1,	7,	-1,	-1,	-1,	31,	-1,	17,	-1,	-1,	-1,	-1,	23,	18,	-1,	-1,	25,	-1,	-1,	8,	10,	-1,	6,	-1,	-1,	-1,	-1,	15|
22,	-1,	-1,	7,	15,	-1,	6,	-1,	-1,	25,	-1,	27,	-1,	-1,	-1,	-1,	30,	23,	-1,	-1,	-1,	-1,	17,	16,	-1,	-1,	-1,	-1,	-1,	5,	-1,	-1,	12,	-1,	-1,	-1|
21,	-1,	9,	-1,	-1,	-1,	-1,	6,	-1,	-1,	29,	-1,	7,	-1,	-1,	-1,	19,	-1,	-1,	-1,	-1,	26,	-1,	-1,	-1,	12,	-1,	-1,	-1,	-1,	36,	-1,	-1,	-1,	-1,	34|
-1,	18,	27,	-1,	2,	-1,	-1,	-1,	-1,	-1,	-1,	21,	-1,	-1,	33,	-1,	10,	30,	-1,	25,	3,	-1,	-1,	7,	9,	-1,	17,	34,	-1,	1,	16,	14,	-1,	4,	15,	-1|
-1,	-1,	13,	20,	7,	-1,	-1,	27,	31,	-1,	8,	-1,	-1,	-1,	-1,	-1,	-1,	-1,	-1,	-1,	-1,	16,	-1,	12,	3,	-1,	-1,	-1,	18,	-1,	-1,	-1,	11,	-1,	-1,	5|
-1,	-1,	-1,	-1,	35,	-1,	17,	-1,	34,	-1,	-1,	-1,	-1,	8,	-1,	13,	-1,	-1,	-1,	-1,	-1,	36,	-1,	30,	-1,	27,	-1,	-1,	-1,	-1,	-1,	-1,	31,	-1,	21,	-1|
-1,	-1,	8,	-1,	-1,	36,	-1,	-1,	22,	33,	15,	-1,	-1,	-1,	5,	-1,	-1,	-1,	4,	-1,	11,	-1,	-1,	-1,	26,	-1,	-1,	-1,	2,	10,	-1,	-1,	24,	-1,	-1,	-1|
-1,	-1,	-1,	15,	-1,	-1,	-1,	-1,	20,	26,	-1,	-1,	-1,	-1,	18,	-1,	31,	-1,	-1,	-1,	1,	-1,	-1,	-1,	-1,	-1,	35,	19,	6,	-1,	30,	-1,	-1,	-1,	-1,	-1|
-1,	-1,	15,	-1,	-1,	-1,	-1,	13,	-1,	-1,	-1,	36,	-1,	-1,	-1,	-1,	33,	-1,	-1,	-1,	6,	-1,	32,	-1,	7,	-1,	31,	4,	-1,	23,	-1,	22,	5,	26,	2,	21|
1,	25,	4,	-1,	-1,	-1,	34,	-1,	-1,	23,	-1,	-1,	-1,	-1,	-1,	19,	-1,	-1,	-1,	-1,	30,	-1,	-1,	-1,	-1,	-1,	9,	-1,	16,	-1,	-1,	-1,	-1,	-1,	-1,	24|
16,	-1,	5,	-1,	-1,	-1,	-1,	30,	-1,	22,	-1,	-1,	-1,	-1,	-1,	-1,	-1,	-1,	-1,	35,	-1,	-1,	-1,	21,	10,	-1,	34,	-1,	-1,	-1,	-1,	-1,	-1,	-1,	-1,	-1|
-1,	-1,	31,	32,	-1,	-1,	14,	-1,	-1,	-1,	11,	10,	-1,	-1,	12,	18,	-1,	6,	15,	-1,	-1,	-1,	20,	-1,	-1,	28,	-1,	25,	-1,	35,	33,	-1,	-1,	16,	30,	-1|
-1,	8,	23,	11,	-1,	24,	-1,	31,	-1,	-1,	-1,	-1,	2,	-1,	-1,	-1,	36,	-1,	-1,	-1,	-1,	5,	-1,	-1,	-1,	-1,	3,	20,	12,	-1,	-1,	25,	-1,	-1,	-1,	7|
-1,	-1,	-1,	-1,	18,	33,	-1,	-1,	-1,	-1,	-1,	-1,	-1,	-1,	23,	24,	-1,	16,	12,	29,	-1,	-1,	-1,	11,	6,	-1,	36,	-1,	-1,	27,	-1,	17,	-1,	-1,	-1,	14|
-1,	31,	11,	-1,	-1,	-1,	-1,	-1,	-1,	-1,	-1,	29,	-1,	-1,	-1,	-1,	-1,	25,	7,	23,	-1,	19,	18,	-1,	-1,	10,	-1,	-1,	-1,	-1,	-1,	15,	-1,	-1,	-1,	-1|
-1,	-1,	-1,	-1,	28,	4,	33,	-1,	-1,	-1,	-1,	-1,	23,	-1,	-1,	-1,	-1,	-1,	22,	-1,	-1,	-1,	14,	-1,	-1,	-1,	32,	-1,	-1,	-1,	21,	-1,	-1,	-1,	-1,	29|
-1,	9,	-1,	25,	-1,	-1,	27,	-1,	2,	-1,	1,	11,	18,	30,	-1,	-1,	17,	-1,	13,	3,	29,	4,	-1,	-1,	-1,	-1,	-1,	-1,	23,	14,	-1,	-1,	-1,	-1,	-1,	-1|
-1,	-1,	7,	22,	-1,	20,	9,	-1,	-1,	-1,	-1,	19,	-1,	27,	-1,	32,	-1,	-1,	-1,	-1,	-1,	-1,	-1,	-1,	28,	34,	-1,	-1,	4,	-1,	-1,	-1,	-1,	-1,	-1,	-1|
15,	13,	17,	29,	-1,	-1,	-1,	-1,	23,	10,	7,	-1,	-1,	-1,	6,	-1,	24,	-1,	-1,	2,	33,	-1,	28,	-1,	-1,	-1,	-1,	11,	-1,	19,	20,	-1,	-1,	-1,	-1,	-1|
-1,	26,	-1,	-1,	23,	8,	-1,	15,	-1,	-1,	30,	-1,	-1,	-1,	-1,	5,	4,	-1,	-1,	20,	-1,	11,	-1,	17,	-1,	-1,	16,	-1,	13,	31,	-1,	-1,	-1,	-1,	28,	32|];
